NAME: set1_case1_24_20
COMMENT: 780
VEHICLE: 38
TIME: 600
DIMENSION: 20
CAPACITY: 10
DELIVERY_SECTION
0 0 0
1 1 2
2 1 2
3 1 2
4 1 2
5 1 2
6 2 2
7 2 2
8 2 2
9 2 2
10 2 2
11 3 2
12 3 2
13 3 2
14 3 2
15 3 2
16 4 2
17 4 2
18 4 2
19 4 2
20 4 2
21 5 2
22 5 2
23 5 2
24 5 2
25 5 2
26 6 2
27 6 2
28 6 2
29 6 2
30 6 2
31 7 2
32 7 2
33 7 2
34 7 2
35 7 2
36 8 2
37 8 2
38 8 2
39 8 2
40 8 2
41 9 2
42 9 2
43 9 2
44 9 2
45 9 2
46 10 2
47 10 2
48 10 2
49 10 2
50 10 2
51 11 2
52 11 2
53 11 2
54 11 2
55 11 2
56 12 2
57 12 2
58 12 2
59 12 2
60 12 2
61 13 2
62 13 2
63 13 2
64 13 2
65 13 2
66 14 2
67 14 2
68 14 2
69 14 2
70 14 2
71 15 2
72 15 2
73 15 2
74 15 2
75 15 2
76 16 2
77 16 2
78 16 2
79 16 2
80 16 2
81 17 2
82 17 2
83 17 2
84 17 2
85 17 2
86 18 2
87 18 2
88 18 2
89 18 2
90 18 2
91 19 2
92 19 2
93 19 2
94 19 2
95 19 2
PICKUP_SECTION
0 0 0
1 1 2
2 1 2
3 1 2
4 1 2
5 1 2
6 1 2
7 1 2
8 1 2
9 1 2
10 1 2
11 2 2
12 2 2
13 2 2
14 2 2
15 2 2
16 2 2
17 2 2
18 2 2
19 2 2
20 2 2
21 3 2
22 3 2
23 3 2
24 3 2
25 3 2
26 3 2
27 3 2
28 3 2
29 3 2
30 3 2
31 4 2
32 4 2
33 4 2
34 4 2
35 4 2
36 4 2
37 4 2
38 4 2
39 4 2
40 4 2
41 5 2
42 5 2
43 5 2
44 5 2
45 5 2
46 5 2
47 5 2
48 5 2
49 5 2
50 5 2
51 6 2
52 6 2
53 6 2
54 6 2
55 6 2
56 6 2
57 6 2
58 6 2
59 6 2
60 6 2
61 7 2
62 7 2
63 7 2
64 7 2
65 7 2
66 7 2
67 7 2
68 7 2
69 7 2
70 7 2
71 8 2
72 8 2
73 8 2
74 8 2
75 8 2
76 8 2
77 8 2
78 8 2
79 8 2
80 8 2
81 9 2
82 9 2
83 9 2
84 9 2
85 9 2
86 9 2
87 9 2
88 9 2
89 9 2
90 9 2
91 10 2
92 10 2
93 10 2
94 10 2
95 10 2
96 10 2
97 10 2
98 10 2
99 10 2
100 10 2
101 11 2
102 11 2
103 11 2
104 11 2
105 11 2
106 11 2
107 11 2
108 11 2
109 11 2
110 11 2
111 12 2
112 12 2
113 12 2
114 12 2
115 12 2
116 12 2
117 12 2
118 12 2
119 12 2
120 12 2
121 13 2
122 13 2
123 13 2
124 13 2
125 13 2
126 13 2
127 13 2
128 13 2
129 13 2
130 13 2
131 14 2
132 14 2
133 14 2
134 14 2
135 14 2
136 14 2
137 14 2
138 14 2
139 14 2
140 14 2
141 15 2
142 15 2
143 15 2
144 15 2
145 15 2
146 15 2
147 15 2
148 15 2
149 15 2
150 15 2
151 16 2
152 16 2
153 16 2
154 16 2
155 16 2
156 16 2
157 16 2
158 16 2
159 16 2
160 16 2
161 17 2
162 17 2
163 17 2
164 17 2
165 17 2
166 17 2
167 17 2
168 17 2
169 17 2
170 17 2
171 18 2
172 18 2
173 18 2
174 18 2
175 18 2
176 18 2
177 18 2
178 18 2
179 18 2
180 18 2
181 19 2
182 19 2
183 19 2
184 19 2
185 19 2
186 19 2
187 19 2
188 19 2
189 19 2
190 19 2
NODE_SECTION
DISTANCE_SECTION
10 10 10 10 10 10 10 10 10 10 10 10 10 10 10 10 10 10 10 
10 10 10 10 10 10 10 10 10 10 10 10 10 10 10 10 10 10 
10 10 10 10 10 10 10 10 10 10 10 10 10 10 10 10 10 
10 10 10 10 10 10 10 10 10 10 10 10 10 10 10 10 
10 10 10 10 10 10 10 10 10 10 10 10 10 10 10 
10 10 10 10 10 10 10 10 10 10 10 10 10 10 
10 10 10 10 10 10 10 10 10 10 10 10 10 
10 10 10 10 10 10 10 10 10 10 10 10 
10 10 10 10 10 10 10 10 10 10 10 
10 10 10 10 10 10 10 10 10 10 
10 10 10 10 10 10 10 10 10 
10 10 10 10 10 10 10 10 
10 10 10 10 10 10 10 
10 10 10 10 10 10 
10 10 10 10 10 
10 10 10 10 
10 10 10 
10 10 
10 
DEPOT_SECTION
0
EOF